% Auto-generated by scripts/generate_dzn.py
% problem_type   = nonogram
% instance       = nonogram_64
% source_json    = instances_json/0_low_blowup/nonogram_64.json
% blowup         = 1.2564102564102564
% representation = DFA

mode = 0;

height = 5;
width = 5;
Q = 7;
S = 2;
row_q0 = [1, 1, 1, 1, 1];
row_F = [{5}, {4}, {6}, {3}, {2}];
col_q0 = [1, 1, 1, 1, 1];
col_F = [{5}, {4}, {4}, {4}, {2}];
row_d_dfa = array3d(1..5, 1..7, 1..2, [
  % k = 1
    1, 2,
    3, 6,
    3, 4,
    6, 5,
    5, 6,
    6, 6,
    0, 0,

  % k = 2
    1, 2,
    3, 5,
    3, 4,
    4, 5,
    5, 5,
    0, 0,
    0, 0,

  % k = 3
    1, 2,
    7, 3,
    7, 4,
    7, 5,
    7, 6,
    6, 7,
    7, 7,

  % k = 4
    1, 2,
    4, 3,
    3, 4,
    4, 4,
    0, 0,
    0, 0,
    0, 0,

  % k = 5
    1, 2,
    2, 3,
    3, 3,
    0, 0,
    0, 0,
    0, 0,
    0, 0
]);
row_d_nfa = array3d(1..5, 1..7, 1..2, [
  % k = 1
    {}, {},
    {}, {},
    {}, {},
    {}, {},
    {}, {},
    {}, {},
    {}, {},

  % k = 2
    {}, {},
    {}, {},
    {}, {},
    {}, {},
    {}, {},
    {}, {},
    {}, {},

  % k = 3
    {}, {},
    {}, {},
    {}, {},
    {}, {},
    {}, {},
    {}, {},
    {}, {},

  % k = 4
    {}, {},
    {}, {},
    {}, {},
    {}, {},
    {}, {},
    {}, {},
    {}, {},

  % k = 5
    {}, {},
    {}, {},
    {}, {},
    {}, {},
    {}, {},
    {}, {},
    {}, {}
]);
col_d_dfa = array3d(1..5, 1..7, 1..2, [
  % k = 1
    1, 2,
    6, 3,
    6, 4,
    6, 5,
    5, 6,
    6, 6,
    0, 0,

  % k = 2
    1, 2,
    5, 3,
    5, 4,
    4, 5,
    5, 5,
    0, 0,
    0, 0,

  % k = 3
    1, 2,
    5, 3,
    5, 4,
    4, 5,
    5, 5,
    0, 0,
    0, 0,

  % k = 4
    1, 2,
    3, 5,
    3, 4,
    4, 5,
    5, 5,
    0, 0,
    0, 0,

  % k = 5
    1, 2,
    2, 3,
    3, 3,
    0, 0,
    0, 0,
    0, 0,
    0, 0
]);
col_d_nfa = array3d(1..5, 1..7, 1..2, [
  % k = 1
    {}, {},
    {}, {},
    {}, {},
    {}, {},
    {}, {},
    {}, {},
    {}, {},

  % k = 2
    {}, {},
    {}, {},
    {}, {},
    {}, {},
    {}, {},
    {}, {},
    {}, {},

  % k = 3
    {}, {},
    {}, {},
    {}, {},
    {}, {},
    {}, {},
    {}, {},
    {}, {},

  % k = 4
    {}, {},
    {}, {},
    {}, {},
    {}, {},
    {}, {},
    {}, {},
    {}, {},

  % k = 5
    {}, {},
    {}, {},
    {}, {},
    {}, {},
    {}, {},
    {}, {},
    {}, {}
]);
